%mem=7gb
%nproc=4
#b3lyp/gen pseudo=read opt=(loose,cartesian) scrf=(solvent=water)

Estrutura 11

-2 1
Pt       0.0000000000      0.0000000000      0.0000000000                 
Br       0.0000000000      0.0000000000      2.5047890000                 
Br       0.0000000000      2.5047890000      0.0000000000                 
Br       2.5047890000      0.0000000000      0.0000000000                 
Br       0.0000000000      0.0000000000     -2.5047890000                 
Br       0.0000000000     -2.5047890000      0.0000000000                 
Br      -2.5047890000      0.0000000000      0.0000000000

Br     0
S    6   1.00
 113286.3877600              0.14283037779D-02
  17009.6263030              0.10950417496D-01
   3870.1842567              0.54421006604D-01
   1093.0357227              0.19047907695
    356.39721797             0.39024642737
    123.12539643             0.30814432514
S    3   1.00
    236.74084007            -0.11228065671
     28.468661070            0.64775962312
     11.883443722            0.44235575986
S    3   1.00
     21.269633312           -0.22642576323
      3.6129226841           0.73823712008
      1.6626648969           0.42683868694
S    1   1.00
      0.34823793232          1.0000000
S    1   1.00
      0.13019031394          1.0000000
P    5   1.00
   1560.2801881              0.87166669072D-02
    368.47859205             0.66243637420D-01
    117.22978849             0.26495610385
     42.648909248            0.53839160587
     16.087225096            0.36579387888
P    3   1.00
      8.6352810058           0.34248787366
      3.5613665502           0.57500678213
      1.5292626609           0.24330394172
P    1   1.00
      0.53064294848          1.0000000
P    1   1.00
      0.15702758965          1.0000000
D    4   1.00
    104.85518642             0.22650147581D-01
     30.281143688            0.13455483230
     10.651394267            0.36474454537
      3.8699456233           0.49044587056
D    1   1.00
      1.3240876762            .27137289040
D    1   1.00
      0.3890000              1.0000000
****
Pt 0
LANL2DZ
****

Pt 0
LANL2DZ    






