%mem=7gb
%nproc=4
#b3lyp/gen pseudo=read opt=(loose,cartesian) scrf=(solvent=water)

Estrutura 24

-2 1
 Pt                -0.31954889    0.33834586    0.00000000
 Br                -0.31954889   -2.09165414    0.00000000
 Br                 2.11045111    0.33834586    0.00000000
 Br                -0.31954889    2.76834586    0.00000000
 Br                -2.74954889    0.33834586    0.00000000
 Cl                -0.31954889    0.33834586    2.28000000
 Cl                -0.31954889    0.33834586   -2.28000000

Cl     0
S    5   1.00
  10449.8275660              0.19708362484D-02
   1571.7365221              0.14754727977D-01
    357.12065523             0.66679112875D-01
    100.25185935             0.17228924084
     30.812727554            0.15883786100
S    3   1.00
     51.923789434           -0.10009298909
      5.7045760975           0.60841752753
      2.3508376809           0.54352153355
S    1   1.00
      0.44605124672          1.0000000
S    1   1.00
      0.16848856190          1.0000000
P    5   1.00
    307.66790569            -0.87801484118D-02
     72.102015515           -0.63563355471D-01
     22.532680262           -0.24016428276
      7.8991765444          -0.47798866557
      2.8767268321          -0.38515850005
P    1   1.00
      0.77459363955          1.0000000
P    1   1.00
      0.21037699698          1.0000000
D    1   1.00
      0.6500000              1.0000000
****
Br     0
S    6   1.00
 113286.3877600              0.14283037779D-02
  17009.6263030              0.10950417496D-01
   3870.1842567              0.54421006604D-01
   1093.0357227              0.19047907695
    356.39721797             0.39024642737
    123.12539643             0.30814432514
S    3   1.00
    236.74084007            -0.11228065671
     28.468661070            0.64775962312
     11.883443722            0.44235575986
S    3   1.00
     21.269633312           -0.22642576323
      3.6129226841           0.73823712008
      1.6626648969           0.42683868694
S    1   1.00
      0.34823793232          1.0000000
S    1   1.00
      0.13019031394          1.0000000
P    5   1.00
   1560.2801881              0.87166669072D-02
    368.47859205             0.66243637420D-01
    117.22978849             0.26495610385
     42.648909248            0.53839160587
     16.087225096            0.36579387888
P    3   1.00
      8.6352810058           0.34248787366
      3.5613665502           0.57500678213
      1.5292626609           0.24330394172
P    1   1.00
      0.53064294848          1.0000000
P    1   1.00
      0.15702758965          1.0000000
D    4   1.00
    104.85518642             0.22650147581D-01
     30.281143688            0.13455483230
     10.651394267            0.36474454537
      3.8699456233           0.49044587056
D    1   1.00
      1.3240876762            .27137289040
D    1   1.00
      0.3890000              1.0000000
****
Pt 0
LANL2DZ
****

Pt 0
LANL2DZ    






